int: n=19;
array[1..n,1..2] of string: Edge = [|"A","S"|"B","S"|"C","S"|"C","B"|"D","S"|"D","C"|"E","A"|"E","D"|"G1","E"|"G2","B"|"G2","C"|"H","A"|"H","E"|"H","G1"|"I","A"|"I","B"|"I","H"|"J","B"|"J","G2"|];
